NAME /Users/henri/Research/solvers/instances/idol-instances/robust/collection/spp_dkp_Lefebvre_et_al_2026/shortest_path_10_10/uncertainty_sets/discrete_knapsack
ROWS
 N  OBJ
 L  primal_lower
COLUMNS
    MARKER    'MARKER'                 'INTORG'
    y[0,2]     OBJ        0
    y[0,2]     primal_lower -3.98
    y[0,3]     OBJ        0
    y[0,3]     primal_lower -0.13
    y[0,4]     OBJ        0
    y[0,4]     primal_lower -1.02
    y[0,5]     OBJ        0
    y[0,5]     primal_lower -2.99
    y[0,6]     OBJ        0
    y[0,6]     primal_lower -0.48
    y[0,7]     OBJ        0
    y[0,7]     primal_lower -3
    y[0,9]     OBJ        0
    y[0,9]     primal_lower -0.26
    y[1,2]     OBJ        0
    y[1,2]     primal_lower -4.64
    y[1,5]     OBJ        0
    y[1,5]     primal_lower -4.74
    y[1,6]     OBJ        0
    y[1,6]     primal_lower -2.52
    y[1,7]     OBJ        0
    y[1,7]     primal_lower -3.08
    y[1,9]     OBJ        0
    y[1,9]     primal_lower -3.7
    y[2,0]     OBJ        0
    y[2,0]     primal_lower -3.7
    y[2,1]     OBJ        0
    y[2,1]     primal_lower -2.02
    y[2,3]     OBJ        0
    y[2,3]     primal_lower -3.72
    y[2,4]     OBJ        0
    y[2,4]     primal_lower -2.05
    y[2,5]     OBJ        0
    y[2,5]     primal_lower -4.48
    y[2,6]     OBJ        0
    y[2,6]     primal_lower -3.3
    y[2,7]     OBJ        0
    y[2,7]     primal_lower -1.78
    y[2,8]     OBJ        0
    y[2,8]     primal_lower -4.15
    y[2,9]     OBJ        0
    y[2,9]     primal_lower -1.84
    y[3,0]     OBJ        0
    y[3,0]     primal_lower -0.46
    y[3,2]     OBJ        0
    y[3,2]     primal_lower -1.57
    y[3,4]     OBJ        0
    y[3,4]     primal_lower -2.01
    y[3,5]     OBJ        0
    y[3,5]     primal_lower -3.59
    y[3,6]     OBJ        0
    y[3,6]     primal_lower -3.18
    y[3,7]     OBJ        0
    y[3,7]     primal_lower -0.97
    y[3,9]     OBJ        0
    y[3,9]     primal_lower -3.91
    y[4,0]     OBJ        0
    y[4,0]     primal_lower -3.8
    y[4,2]     OBJ        0
    y[4,2]     primal_lower -1.91
    y[4,3]     OBJ        0
    y[4,3]     primal_lower -2.47
    y[4,5]     OBJ        0
    y[4,5]     primal_lower -3.85
    y[4,6]     OBJ        0
    y[4,6]     primal_lower -2.15
    y[4,7]     OBJ        0
    y[4,7]     primal_lower -3.59
    y[4,8]     OBJ        0
    y[4,8]     primal_lower -0.38
    y[4,9]     OBJ        0
    y[4,9]     primal_lower -2.36
    y[5,0]     OBJ        0
    y[5,0]     primal_lower -2.1
    y[5,1]     OBJ        0
    y[5,1]     primal_lower -1.19
    y[5,2]     OBJ        0
    y[5,2]     primal_lower -4.16
    y[5,3]     OBJ        0
    y[5,3]     primal_lower -0.1
    y[5,4]     OBJ        0
    y[5,4]     primal_lower -2.18
    y[5,6]     OBJ        0
    y[5,6]     primal_lower -0.23
    y[5,7]     OBJ        0
    y[5,7]     primal_lower -2.41
    y[5,9]     OBJ        0
    y[5,9]     primal_lower -4.15
    y[6,0]     OBJ        0
    y[6,0]     primal_lower -1.62
    y[6,1]     OBJ        0
    y[6,1]     primal_lower -4.36
    y[6,2]     OBJ        0
    y[6,2]     primal_lower -0.59
    y[6,3]     OBJ        0
    y[6,3]     primal_lower -0.76
    y[6,4]     OBJ        0
    y[6,4]     primal_lower -3.81
    y[6,5]     OBJ        0
    y[6,5]     primal_lower -3.21
    y[6,8]     OBJ        0
    y[6,8]     primal_lower -3.48
    y[6,9]     OBJ        0
    y[6,9]     primal_lower -2.61
    y[7,0]     OBJ        0
    y[7,0]     primal_lower -2.28
    y[7,1]     OBJ        0
    y[7,1]     primal_lower -4.35
    y[7,2]     OBJ        0
    y[7,2]     primal_lower -1.81
    y[7,3]     OBJ        0
    y[7,3]     primal_lower -2.55
    y[7,4]     OBJ        0
    y[7,4]     primal_lower -3.36
    y[7,5]     OBJ        0
    y[7,5]     primal_lower -2.06
    y[7,9]     OBJ        0
    y[7,9]     primal_lower -3.09
    y[8,2]     OBJ        0
    y[8,2]     primal_lower -2.87
    y[8,4]     OBJ        0
    y[8,4]     primal_lower -2.2
    y[8,6]     OBJ        0
    y[8,6]     primal_lower -4.43
    y[8,9]     OBJ        0
    y[8,9]     primal_lower -3.6
    y[9,0]     OBJ        0
    y[9,0]     primal_lower -4.49
    y[9,1]     OBJ        0
    y[9,1]     primal_lower -4.31
    y[9,2]     OBJ        0
    y[9,2]     primal_lower -1.55
    y[9,3]     OBJ        0
    y[9,3]     primal_lower -3.34
    y[9,4]     OBJ        0
    y[9,4]     primal_lower -0.28
    y[9,5]     OBJ        0
    y[9,5]     primal_lower -0.98
    y[9,6]     OBJ        0
    y[9,6]     primal_lower -3.49
    y[9,7]     OBJ        0
    y[9,7]     primal_lower -3.63
    y[9,8]     OBJ        0
    y[9,8]     primal_lower -1.43
    u[0,2]     OBJ        0
    u[0,2]     primal_lower 25
    u[0,3]     OBJ        0
    u[0,3]     primal_lower 39
    u[0,4]     OBJ        0
    u[0,4]     primal_lower 77
    u[0,5]     OBJ        0
    u[0,5]     primal_lower 60
    u[0,6]     OBJ        0
    u[0,6]     primal_lower 15
    u[0,7]     OBJ        0
    u[0,7]     primal_lower 85
    u[0,9]     OBJ        0
    u[0,9]     primal_lower 72
    u[1,2]     OBJ        0
    u[1,2]     primal_lower 89
    u[1,5]     OBJ        0
    u[1,5]     primal_lower 69
    u[1,6]     OBJ        0
    u[1,6]     primal_lower 23
    u[1,7]     OBJ        0
    u[1,7]     primal_lower 51
    u[1,9]     OBJ        0
    u[1,9]     primal_lower 18
    u[2,0]     OBJ        0
    u[2,0]     primal_lower 42
    u[2,1]     OBJ        0
    u[2,1]     primal_lower 11
    u[2,3]     OBJ        0
    u[2,3]     primal_lower 37
    u[2,4]     OBJ        0
    u[2,4]     primal_lower 9
    u[2,5]     OBJ        0
    u[2,5]     primal_lower 22
    u[2,6]     OBJ        0
    u[2,6]     primal_lower 92
    u[2,7]     OBJ        0
    u[2,7]     primal_lower 15
    u[2,8]     OBJ        0
    u[2,8]     primal_lower 52
    u[2,9]     OBJ        0
    u[2,9]     primal_lower 97
    u[3,0]     OBJ        0
    u[3,0]     primal_lower 96
    u[3,2]     OBJ        0
    u[3,2]     primal_lower 64
    u[3,4]     OBJ        0
    u[3,4]     primal_lower 56
    u[3,5]     OBJ        0
    u[3,5]     primal_lower 69
    u[3,6]     OBJ        0
    u[3,6]     primal_lower 68
    u[3,7]     OBJ        0
    u[3,7]     primal_lower 89
    u[3,9]     OBJ        0
    u[3,9]     primal_lower 91
    u[4,0]     OBJ        0
    u[4,0]     primal_lower 66
    u[4,2]     OBJ        0
    u[4,2]     primal_lower 60
    u[4,3]     OBJ        0
    u[4,3]     primal_lower 90
    u[4,5]     OBJ        0
    u[4,5]     primal_lower 25
    u[4,6]     OBJ        0
    u[4,6]     primal_lower 30
    u[4,7]     OBJ        0
    u[4,7]     primal_lower 83
    u[4,8]     OBJ        0
    u[4,8]     primal_lower 57
    u[4,9]     OBJ        0
    u[4,9]     primal_lower 83
    u[5,0]     OBJ        0
    u[5,0]     primal_lower 66
    u[5,1]     OBJ        0
    u[5,1]     primal_lower 56
    u[5,2]     OBJ        0
    u[5,2]     primal_lower 59
    u[5,3]     OBJ        0
    u[5,3]     primal_lower 91
    u[5,4]     OBJ        0
    u[5,4]     primal_lower 50
    u[5,6]     OBJ        0
    u[5,6]     primal_lower 75
    u[5,7]     OBJ        0
    u[5,7]     primal_lower 17
    u[5,9]     OBJ        0
    u[5,9]     primal_lower 16
    u[6,0]     OBJ        0
    u[6,0]     primal_lower 21
    u[6,1]     OBJ        0
    u[6,1]     primal_lower 65
    u[6,2]     OBJ        0
    u[6,2]     primal_lower 32
    u[6,3]     OBJ        0
    u[6,3]     primal_lower 1
    u[6,4]     OBJ        0
    u[6,4]     primal_lower 58
    u[6,5]     OBJ        0
    u[6,5]     primal_lower 58
    u[6,8]     OBJ        0
    u[6,8]     primal_lower 57
    u[6,9]     OBJ        0
    u[6,9]     primal_lower 92
    u[7,0]     OBJ        0
    u[7,0]     primal_lower 75
    u[7,1]     OBJ        0
    u[7,1]     primal_lower 1
    u[7,2]     OBJ        0
    u[7,2]     primal_lower 1
    u[7,3]     OBJ        0
    u[7,3]     primal_lower 65
    u[7,4]     OBJ        0
    u[7,4]     primal_lower 71
    u[7,5]     OBJ        0
    u[7,5]     primal_lower 75
    u[7,9]     OBJ        0
    u[7,9]     primal_lower 96
    u[8,2]     OBJ        0
    u[8,2]     primal_lower 46
    u[8,4]     OBJ        0
    u[8,4]     primal_lower 19
    u[8,6]     OBJ        0
    u[8,6]     primal_lower 74
    u[8,9]     OBJ        0
    u[8,9]     primal_lower 61
    u[9,0]     OBJ        0
    u[9,0]     primal_lower 77
    u[9,1]     OBJ        0
    u[9,1]     primal_lower 49
    u[9,2]     OBJ        0
    u[9,2]     primal_lower 53
    u[9,3]     OBJ        0
    u[9,3]     primal_lower 82
    u[9,4]     OBJ        0
    u[9,4]     primal_lower 24
    u[9,5]     OBJ        0
    u[9,5]     primal_lower 53
    u[9,6]     OBJ        0
    u[9,6]     primal_lower 49
    u[9,7]     OBJ        0
    u[9,7]     primal_lower 6
    u[9,8]     OBJ        0
    u[9,8]     primal_lower 14
    MARKER    'MARKER'                 'INTEND'
RHS
    RHS       primal_lower 348
BOUNDS
 LI BND       y[0,2]     0
 UI BND       y[0,2]     1
 LI BND       y[0,3]     0
 UI BND       y[0,3]     1
 LI BND       y[0,4]     0
 UI BND       y[0,4]     1
 LI BND       y[0,5]     0
 UI BND       y[0,5]     1
 LI BND       y[0,6]     0
 UI BND       y[0,6]     1
 LI BND       y[0,7]     0
 UI BND       y[0,7]     1
 LI BND       y[0,9]     0
 UI BND       y[0,9]     1
 LI BND       y[1,2]     0
 UI BND       y[1,2]     1
 LI BND       y[1,5]     0
 UI BND       y[1,5]     1
 LI BND       y[1,6]     0
 UI BND       y[1,6]     1
 LI BND       y[1,7]     0
 UI BND       y[1,7]     1
 LI BND       y[1,9]     0
 UI BND       y[1,9]     1
 LI BND       y[2,0]     0
 UI BND       y[2,0]     1
 LI BND       y[2,1]     0
 UI BND       y[2,1]     1
 LI BND       y[2,3]     0
 UI BND       y[2,3]     1
 LI BND       y[2,4]     0
 UI BND       y[2,4]     1
 LI BND       y[2,5]     0
 UI BND       y[2,5]     1
 LI BND       y[2,6]     0
 UI BND       y[2,6]     1
 LI BND       y[2,7]     0
 UI BND       y[2,7]     1
 LI BND       y[2,8]     0
 UI BND       y[2,8]     1
 LI BND       y[2,9]     0
 UI BND       y[2,9]     1
 LI BND       y[3,0]     0
 UI BND       y[3,0]     1
 LI BND       y[3,2]     0
 UI BND       y[3,2]     1
 LI BND       y[3,4]     0
 UI BND       y[3,4]     1
 LI BND       y[3,5]     0
 UI BND       y[3,5]     1
 LI BND       y[3,6]     0
 UI BND       y[3,6]     1
 LI BND       y[3,7]     0
 UI BND       y[3,7]     1
 LI BND       y[3,9]     0
 UI BND       y[3,9]     1
 LI BND       y[4,0]     0
 UI BND       y[4,0]     1
 LI BND       y[4,2]     0
 UI BND       y[4,2]     1
 LI BND       y[4,3]     0
 UI BND       y[4,3]     1
 LI BND       y[4,5]     0
 UI BND       y[4,5]     1
 LI BND       y[4,6]     0
 UI BND       y[4,6]     1
 LI BND       y[4,7]     0
 UI BND       y[4,7]     1
 LI BND       y[4,8]     0
 UI BND       y[4,8]     1
 LI BND       y[4,9]     0
 UI BND       y[4,9]     1
 LI BND       y[5,0]     0
 UI BND       y[5,0]     1
 LI BND       y[5,1]     0
 UI BND       y[5,1]     1
 LI BND       y[5,2]     0
 UI BND       y[5,2]     1
 LI BND       y[5,3]     0
 UI BND       y[5,3]     1
 LI BND       y[5,4]     0
 UI BND       y[5,4]     1
 LI BND       y[5,6]     0
 UI BND       y[5,6]     1
 LI BND       y[5,7]     0
 UI BND       y[5,7]     1
 LI BND       y[5,9]     0
 UI BND       y[5,9]     1
 LI BND       y[6,0]     0
 UI BND       y[6,0]     1
 LI BND       y[6,1]     0
 UI BND       y[6,1]     1
 LI BND       y[6,2]     0
 UI BND       y[6,2]     1
 LI BND       y[6,3]     0
 UI BND       y[6,3]     1
 LI BND       y[6,4]     0
 UI BND       y[6,4]     1
 LI BND       y[6,5]     0
 UI BND       y[6,5]     1
 LI BND       y[6,8]     0
 UI BND       y[6,8]     1
 LI BND       y[6,9]     0
 UI BND       y[6,9]     1
 LI BND       y[7,0]     0
 UI BND       y[7,0]     1
 LI BND       y[7,1]     0
 UI BND       y[7,1]     1
 LI BND       y[7,2]     0
 UI BND       y[7,2]     1
 LI BND       y[7,3]     0
 UI BND       y[7,3]     1
 LI BND       y[7,4]     0
 UI BND       y[7,4]     1
 LI BND       y[7,5]     0
 UI BND       y[7,5]     1
 LI BND       y[7,9]     0
 UI BND       y[7,9]     1
 LI BND       y[8,2]     0
 UI BND       y[8,2]     1
 LI BND       y[8,4]     0
 UI BND       y[8,4]     1
 LI BND       y[8,6]     0
 UI BND       y[8,6]     1
 LI BND       y[8,9]     0
 UI BND       y[8,9]     1
 LI BND       y[9,0]     0
 UI BND       y[9,0]     1
 LI BND       y[9,1]     0
 UI BND       y[9,1]     1
 LI BND       y[9,2]     0
 UI BND       y[9,2]     1
 LI BND       y[9,3]     0
 UI BND       y[9,3]     1
 LI BND       y[9,4]     0
 UI BND       y[9,4]     1
 LI BND       y[9,5]     0
 UI BND       y[9,5]     1
 LI BND       y[9,6]     0
 UI BND       y[9,6]     1
 LI BND       y[9,7]     0
 UI BND       y[9,7]     1
 LI BND       y[9,8]     0
 UI BND       y[9,8]     1
 LI BND       u[0,2]     0
 UI BND       u[0,2]     1
 LI BND       u[0,3]     0
 UI BND       u[0,3]     1
 LI BND       u[0,4]     0
 UI BND       u[0,4]     1
 LI BND       u[0,5]     0
 UI BND       u[0,5]     1
 LI BND       u[0,6]     0
 UI BND       u[0,6]     1
 LI BND       u[0,7]     0
 UI BND       u[0,7]     1
 LI BND       u[0,9]     0
 UI BND       u[0,9]     1
 LI BND       u[1,2]     0
 UI BND       u[1,2]     1
 LI BND       u[1,5]     0
 UI BND       u[1,5]     1
 LI BND       u[1,6]     0
 UI BND       u[1,6]     1
 LI BND       u[1,7]     0
 UI BND       u[1,7]     1
 LI BND       u[1,9]     0
 UI BND       u[1,9]     1
 LI BND       u[2,0]     0
 UI BND       u[2,0]     1
 LI BND       u[2,1]     0
 UI BND       u[2,1]     1
 LI BND       u[2,3]     0
 UI BND       u[2,3]     1
 LI BND       u[2,4]     0
 UI BND       u[2,4]     1
 LI BND       u[2,5]     0
 UI BND       u[2,5]     1
 LI BND       u[2,6]     0
 UI BND       u[2,6]     1
 LI BND       u[2,7]     0
 UI BND       u[2,7]     1
 LI BND       u[2,8]     0
 UI BND       u[2,8]     1
 LI BND       u[2,9]     0
 UI BND       u[2,9]     1
 LI BND       u[3,0]     0
 UI BND       u[3,0]     1
 LI BND       u[3,2]     0
 UI BND       u[3,2]     1
 LI BND       u[3,4]     0
 UI BND       u[3,4]     1
 LI BND       u[3,5]     0
 UI BND       u[3,5]     1
 LI BND       u[3,6]     0
 UI BND       u[3,6]     1
 LI BND       u[3,7]     0
 UI BND       u[3,7]     1
 LI BND       u[3,9]     0
 UI BND       u[3,9]     1
 LI BND       u[4,0]     0
 UI BND       u[4,0]     1
 LI BND       u[4,2]     0
 UI BND       u[4,2]     1
 LI BND       u[4,3]     0
 UI BND       u[4,3]     1
 LI BND       u[4,5]     0
 UI BND       u[4,5]     1
 LI BND       u[4,6]     0
 UI BND       u[4,6]     1
 LI BND       u[4,7]     0
 UI BND       u[4,7]     1
 LI BND       u[4,8]     0
 UI BND       u[4,8]     1
 LI BND       u[4,9]     0
 UI BND       u[4,9]     1
 LI BND       u[5,0]     0
 UI BND       u[5,0]     1
 LI BND       u[5,1]     0
 UI BND       u[5,1]     1
 LI BND       u[5,2]     0
 UI BND       u[5,2]     1
 LI BND       u[5,3]     0
 UI BND       u[5,3]     1
 LI BND       u[5,4]     0
 UI BND       u[5,4]     1
 LI BND       u[5,6]     0
 UI BND       u[5,6]     1
 LI BND       u[5,7]     0
 UI BND       u[5,7]     1
 LI BND       u[5,9]     0
 UI BND       u[5,9]     1
 LI BND       u[6,0]     0
 UI BND       u[6,0]     1
 LI BND       u[6,1]     0
 UI BND       u[6,1]     1
 LI BND       u[6,2]     0
 UI BND       u[6,2]     1
 LI BND       u[6,3]     0
 UI BND       u[6,3]     1
 LI BND       u[6,4]     0
 UI BND       u[6,4]     1
 LI BND       u[6,5]     0
 UI BND       u[6,5]     1
 LI BND       u[6,8]     0
 UI BND       u[6,8]     1
 LI BND       u[6,9]     0
 UI BND       u[6,9]     1
 LI BND       u[7,0]     0
 UI BND       u[7,0]     1
 LI BND       u[7,1]     0
 UI BND       u[7,1]     1
 LI BND       u[7,2]     0
 UI BND       u[7,2]     1
 LI BND       u[7,3]     0
 UI BND       u[7,3]     1
 LI BND       u[7,4]     0
 UI BND       u[7,4]     1
 LI BND       u[7,5]     0
 UI BND       u[7,5]     1
 LI BND       u[7,9]     0
 UI BND       u[7,9]     1
 LI BND       u[8,2]     0
 UI BND       u[8,2]     1
 LI BND       u[8,4]     0
 UI BND       u[8,4]     1
 LI BND       u[8,6]     0
 UI BND       u[8,6]     1
 LI BND       u[8,9]     0
 UI BND       u[8,9]     1
 LI BND       u[9,0]     0
 UI BND       u[9,0]     1
 LI BND       u[9,1]     0
 UI BND       u[9,1]     1
 LI BND       u[9,2]     0
 UI BND       u[9,2]     1
 LI BND       u[9,3]     0
 UI BND       u[9,3]     1
 LI BND       u[9,4]     0
 UI BND       u[9,4]     1
 LI BND       u[9,5]     0
 UI BND       u[9,5]     1
 LI BND       u[9,6]     0
 UI BND       u[9,6]     1
 LI BND       u[9,7]     0
 UI BND       u[9,7]     1
 LI BND       u[9,8]     0
 UI BND       u[9,8]     1
ENDATA
